NAME: concorde91
TYPE: TSP
DIMENSION: 15 
EDGE_WEIGHT_TYPE: EUC_2D
NODE_COORD_SECTION
1 23 29
2 71 24
3 2 59
4 63 38
5 67 71
6 45 11
7 68 60
8 0 85
9 6 35
10 28 31
11 47 78
12 78 25
13 37 84
14 90 75
15 52 31
